Sat 19 May 19:12:02 CEST 2018
CPXPARAM_TimeLimit                               45
CPXPARAM_Threads                                 1
CPXPARAM_MIP_Strategy_CallbackReducedLP          0
Tried aggregator 3 times.
MIP Presolve eliminated 38 rows and 38 columns.
MIP Presolve modified 74 coefficients.
Aggregator did 160 substitutions.
Reduced MIP has 256 rows, 209 columns, and 570 nonzeros.
Reduced MIP has 172 binaries, 3 generals, 0 SOSs, and 24 indicators.
Presolve time = 0.00 sec. (1.19 ticks)
Found incumbent of value 4.000000 after 0.00 sec. (1.82 ticks)
Probing time = 0.00 sec. (0.67 ticks)
Tried aggregator 2 times.
Aggregator did 102 substitutions.
Reduced MIP has 154 rows, 107 columns, and 366 nonzeros.
Reduced MIP has 70 binaries, 37 generals, 0 SOSs, and 24 indicators.
Presolve time = 0.00 sec. (0.44 ticks)
Probing time = 0.00 sec. (0.28 ticks)
Tried aggregator 1 time.
Reduced MIP has 154 rows, 107 columns, and 366 nonzeros.
Reduced MIP has 70 binaries, 37 generals, 0 SOSs, and 24 indicators.
Presolve time = 0.00 sec. (0.28 ticks)
Probing time = 0.00 sec. (0.29 ticks)
Clique table members: 328.
MIP emphasis: balance optimality and feasibility.
MIP search method: dynamic search.
Parallel mode: none, using 1 thread.
Root relaxation solution time = 0.00 sec. (0.24 ticks)

        Nodes                                         Cuts/
   Node  Left     Objective  IInf  Best Integer    Best Bound    ItCnt     Gap

*     0+    0                            4.0000        0.0000           100.00%
      0     0        0.0000    24        4.0000        0.0000       10  100.00%
      0     0        0.0000    40        4.0000      Cuts: 95       53  100.00%
      0     0        0.0000     2        4.0000   Impl Bds: 6       55  100.00%
      0     0        0.0000    21        4.0000  Impl Bds: 13       71  100.00%
*     0+    0                            2.0000        0.0000           100.00%

Repeating presolve.
Tried aggregator 3 times.
MIP Presolve eliminated 126 rows and 77 columns.
MIP Presolve modified 8 coefficients.
Aggregator did 4 substitutions.
Reduced MIP has 28 rows, 22 columns, and 56 nonzeros.
Reduced MIP has 18 binaries, 4 generals, 0 SOSs, and 0 indicators.
Presolve time = 0.00 sec. (0.32 ticks)
Represolve time = 0.00 sec. (0.44 ticks)

Root node processing (before b&c):
  Real time             =    0.02 sec. (11.19 ticks)
Sequential b&c:
  Real time             =    0.00 sec. (0.00 ticks)
                          ------------
Total (root+branch&cut) =    0.02 sec. (11.19 ticks)
  | W
L | 0 1 2 
----------
0 | 1 . . 
1 | 1 2 2 
2 | . . . 
3 | . . . 

Boxes' corners:      (w,l)
    Box 1 is at 
        top left     (0,0)
        bottom right (0,1)

    Box 2 is at 
        top left     (1,1)
        bottom right (2,1)

    Roll length used: 2
In 0.02 seconds
